# Solution for model breathing_srl_ilp
# Objective value = 1.3823792450847647e+00
Z_565_0_0 0
Z_565_0_1 0
Z_565_0_2 1
Z_565_0_3 0
Z_565_0_4 0
Z_360_0_0 0
Z_360_0_1 1
Z_360_0_2 0
Z_360_0_3 0
Z_360_0_4 0
